ssat_solver_solve2
#level: 2
Abc_NtkNodeNum(s->pNtk): 873  , BDD limit: 10240
level 1: 10 element
Exist
existence_eliminate_scope
Abc_NtkIsBddLogic(pNtk): 0
Abc_NtkIsStrash(pNtk): 1
existence_eliminate_scope_aig
exist by BDD failed
Abc_NtkNodeNum(s->pNtk): 26744  , BDD limit: 32092
Build BDD success
level 0: 10 element
Random
c ssat solving in ABC
#var: 20
s SATISFIABLE
  > Upper bound = 9.814453e-01
  > Lower bound = 9.814453e-01
FINISHED CPU 0.31 MEM 0 MAXMEM 63952 STALE 0 MAXMEM_RSS 20492
<time name="ALL">310</time>
real 0.46
user 0.39
sys 0.20
